20J6M/DAT/20J6MNLL-12.dat
20 6
15.9394 15.9394
26.4652 26.4652
22.4693 22.4693
26.1878 26.1878
26.6716 26.6716
19.1447 19.1447
27.2819 27.2819
27.3291 27.3291
31.797 31.797
22.8452 22.8452
20.4625 20.4625
20.7169 20.7169
24.0504 24.0504
30.0278 30.0278
20.174 20.174
24.7089 24.7089
14.06 14.06
27.8615 27.8615
21.4975 21.4975
28.3882 28.3882
79.6798