20J6M/SOL/20J6MNLL-12.sol
solution status: optimal solution found
objective value:                              79.6798
x#1#2                                               1 	(obj:0)
x#2#5                                               1 	(obj:0)
x#3#2                                               1 	(obj:0)
x#4#4                               0.532992462138858 	(obj:0)
x#4#5                               0.467007537861142 	(obj:0)
x#5#3                               0.330557596844582 	(obj:0)
x#5#6                               0.669442403155418 	(obj:0)
x#6#3                                               1 	(obj:0)
x#7#1                                               1 	(obj:0)
x#8#5                                               1 	(obj:0)
x#9#6                               0.999996855049216 	(obj:0)
x#10#2                            0.00401397230052654 	(obj:0)
x#10#3                              0.995986027699473 	(obj:0)
x#11#2                                              1 	(obj:0)
x#12#2                                              1 	(obj:0)
x#13#4                                              1 	(obj:0)
x#14#6                                              1 	(obj:0)
x#15#4                                              1 	(obj:0)
x#16#3                                              1 	(obj:0)
x#17#1                                              1 	(obj:0)
x#18#1                                              1 	(obj:0)
x#19#4                                              1 	(obj:0)
x#20#1                              0.369040657738074 	(obj:0)
x#20#3                              0.149928491415448 	(obj:0)
x#20#5                              0.481030850846478 	(obj:0)
z                                             79.6798 	(obj:1)
